(set-logic HORN)

(declare-datatypes ((Nat_0 0)) (((Z_0 ) (S_0  (projS_0 Nat_0)))))

(declare-fun |diseqNat_0| ( Nat_0 Nat_0 ) Bool)
(declare-fun |x_1| ( Nat_0 Nat_0 Nat_0 ) Bool)
(declare-fun |half_0| ( Nat_0 Nat_0 ) Bool)

(assert
  (forall ( (A Nat_0) (B Nat_0) (v_2 Nat_0) ) 
    (=>
      (and
        (and (= A (S_0 B)) (= v_2 Z_0))
      )
      (diseqNat_0 v_2 A)
    )
  )
)
(assert
  (forall ( (A Nat_0) (B Nat_0) (v_2 Nat_0) ) 
    (=>
      (and
        (and (= A (S_0 B)) (= v_2 Z_0))
      )
      (diseqNat_0 A v_2)
    )
  )
)
(assert
  (forall ( (A Nat_0) (B Nat_0) (C Nat_0) (D Nat_0) ) 
    (=>
      (and
        (diseqNat_0 C D)
        (and (= B (S_0 C)) (= A (S_0 D)))
      )
      (diseqNat_0 B A)
    )
  )
)
(assert
  (forall ( (A Nat_0) (B Nat_0) (C Nat_0) (D Nat_0) ) 
    (=>
      (and
        (half_0 C D)
        (and (= B (S_0 C)) (= A (S_0 (S_0 D))))
      )
      (half_0 B A)
    )
  )
)
(assert
  (forall ( (v_0 Nat_0) (v_1 Nat_0) ) 
    (=>
      (and
        (and true (= v_0 Z_0) (= v_1 (S_0 Z_0)))
      )
      (half_0 v_0 v_1)
    )
  )
)
(assert
  (forall ( (v_0 Nat_0) (v_1 Nat_0) ) 
    (=>
      (and
        (and true (= v_0 Z_0) (= v_1 Z_0))
      )
      (half_0 v_0 v_1)
    )
  )
)
(assert
  (forall ( (A Nat_0) (B Nat_0) (C Nat_0) (D Nat_0) (E Nat_0) ) 
    (=>
      (and
        (x_1 C D E)
        (and (= A (S_0 D)) (= B (S_0 C)))
      )
      (x_1 B A E)
    )
  )
)
(assert
  (forall ( (A Nat_0) (v_1 Nat_0) (v_2 Nat_0) ) 
    (=>
      (and
        (and true (= v_1 Z_0) (= v_2 A))
      )
      (x_1 A v_1 v_2)
    )
  )
)
(assert
  (forall ( (A Nat_0) (B Nat_0) (C Nat_0) (D Nat_0) (E Nat_0) (F Nat_0) ) 
    (=>
      (and
        (half_0 B A)
        (half_0 D C)
        (x_1 C F E)
        (diseqNat_0 B D)
        (x_1 A E F)
        true
      )
      false
    )
  )
)

(check-sat)
(exit)
